50
17605

852 319
263 982
24 621
499 14
51 279
436 948
179 259
328 5
381 676
772 366
103 28
201 316
729 790
682 747
653 528
171 973
940 103
747 10
800 599
448 253
335 466
402 317
945 743
371 249
104 944
15 843
846 521
334 868
870 972
809 860
522 394
604 7
462 483
500 210
179 589
912 843
652 483
366 182
680 926
397 307
384 938
639 7
408 580
951 449
285 262
387 628
805 9
727 52
10 283
48 181
